c description: There is a graph of 4 vertices with a 3-clique and a 9-coloring
c generator: CNFgen (0.9.0)
c copyright: (C) 2012-2020 Massimo Lauria <massimo.lauria@uniroma1.it>
c url: https://massimolauria.net/cnfgen
c
p cnf 54 271
-7 -8 0
-7 -9 0
-7 -10 0
-8 -9 0
-8 -10 0
-9 -10 0
7 8 9 10 0
-11 -12 0
-11 -13 0
-11 -14 0
-12 -13 0
-12 -14 0
-13 -14 0
11 12 13 14 0
-15 -16 0
-15 -17 0
-15 -18 0
-16 -17 0
-16 -18 0
-17 -18 0
15 16 17 18 0
-7 -11 0
-7 -15 0
-11 -15 0
-8 -12 0
-8 -16 0
-12 -16 0
-9 -13 0
-9 -17 0
-13 -17 0
-10 -14 0
-10 -18 0
-14 -18 0
1 -7 -12 0
1 -7 -16 0
1 -11 -8 0
1 -11 -16 0
1 -15 -8 0
1 -15 -12 0
2 -7 -13 0
2 -7 -17 0
2 -11 -9 0
2 -11 -17 0
2 -15 -9 0
2 -15 -13 0
3 -7 -14 0
3 -7 -18 0
3 -11 -10 0
3 -11 -18 0
3 -15 -10 0
3 -15 -14 0
4 -8 -13 0
4 -8 -17 0
4 -12 -9 0
4 -12 -17 0
4 -16 -9 0
4 -16 -13 0
5 -8 -14 0
5 -8 -18 0
5 -12 -10 0
5 -12 -18 0
5 -16 -10 0
5 -16 -14 0
6 -9 -14 0
6 -9 -18 0
6 -13 -10 0
6 -13 -18 0
6 -17 -10 0
6 -17 -14 0
-19 -20 0
-19 -21 0
-19 -22 0
-19 -23 0
-19 -24 0
-19 -25 0
-19 -26 0
-19 -27 0
-20 -21 0
-20 -22 0
-20 -23 0
-20 -24 0
-20 -25 0
-20 -26 0
-20 -27 0
-21 -22 0
-21 -23 0
-21 -24 0
-21 -25 0
-21 -26 0
-21 -27 0
-22 -23 0
-22 -24 0
-22 -25 0
-22 -26 0
-22 -27 0
-23 -24 0
-23 -25 0
-23 -26 0
-23 -27 0
-24 -25 0
-24 -26 0
-24 -27 0
-25 -26 0
-25 -27 0
-26 -27 0
19 20 21 22 23 24 25 26 27 0
-28 -29 0
-28 -30 0
-28 -31 0
-28 -32 0
-28 -33 0
-28 -34 0
-28 -35 0
-28 -36 0
-29 -30 0
-29 -31 0
-29 -32 0
-29 -33 0
-29 -34 0
-29 -35 0
-29 -36 0
-30 -31 0
-30 -32 0
-30 -33 0
-30 -34 0
-30 -35 0
-30 -36 0
-31 -32 0
-31 -33 0
-31 -34 0
-31 -35 0
-31 -36 0
-32 -33 0
-32 -34 0
-32 -35 0
-32 -36 0
-33 -34 0
-33 -35 0
-33 -36 0
-34 -35 0
-34 -36 0
-35 -36 0
28 29 30 31 32 33 34 35 36 0
-37 -38 0
-37 -39 0
-37 -40 0
-37 -41 0
-37 -42 0
-37 -43 0
-37 -44 0
-37 -45 0
-38 -39 0
-38 -40 0
-38 -41 0
-38 -42 0
-38 -43 0
-38 -44 0
-38 -45 0
-39 -40 0
-39 -41 0
-39 -42 0
-39 -43 0
-39 -44 0
-39 -45 0
-40 -41 0
-40 -42 0
-40 -43 0
-40 -44 0
-40 -45 0
-41 -42 0
-41 -43 0
-41 -44 0
-41 -45 0
-42 -43 0
-42 -44 0
-42 -45 0
-43 -44 0
-43 -45 0
-44 -45 0
37 38 39 40 41 42 43 44 45 0
-46 -47 0
-46 -48 0
-46 -49 0
-46 -50 0
-46 -51 0
-46 -52 0
-46 -53 0
-46 -54 0
-47 -48 0
-47 -49 0
-47 -50 0
-47 -51 0
-47 -52 0
-47 -53 0
-47 -54 0
-48 -49 0
-48 -50 0
-48 -51 0
-48 -52 0
-48 -53 0
-48 -54 0
-49 -50 0
-49 -51 0
-49 -52 0
-49 -53 0
-49 -54 0
-50 -51 0
-50 -52 0
-50 -53 0
-50 -54 0
-51 -52 0
-51 -53 0
-51 -54 0
-52 -53 0
-52 -54 0
-53 -54 0
46 47 48 49 50 51 52 53 54 0
-1 -19 -28 0
-1 -20 -29 0
-1 -21 -30 0
-1 -22 -31 0
-1 -23 -32 0
-1 -24 -33 0
-1 -25 -34 0
-1 -26 -35 0
-1 -27 -36 0
-2 -19 -37 0
-2 -20 -38 0
-2 -21 -39 0
-2 -22 -40 0
-2 -23 -41 0
-2 -24 -42 0
-2 -25 -43 0
-2 -26 -44 0
-2 -27 -45 0
-3 -19 -46 0
-3 -20 -47 0
-3 -21 -48 0
-3 -22 -49 0
-3 -23 -50 0
-3 -24 -51 0
-3 -25 -52 0
-3 -26 -53 0
-3 -27 -54 0
-4 -28 -37 0
-4 -29 -38 0
-4 -30 -39 0
-4 -31 -40 0
-4 -32 -41 0
-4 -33 -42 0
-4 -34 -43 0
-4 -35 -44 0
-4 -36 -45 0
-5 -28 -46 0
-5 -29 -47 0
-5 -30 -48 0
-5 -31 -49 0
-5 -32 -50 0
-5 -33 -51 0
-5 -34 -52 0
-5 -35 -53 0
-5 -36 -54 0
-6 -37 -46 0
-6 -38 -47 0
-6 -39 -48 0
-6 -40 -49 0
-6 -41 -50 0
-6 -42 -51 0
-6 -43 -52 0
-6 -44 -53 0
-6 -45 -54 0